p cnf 7230 18
-220 -221 -222 -223 224 0
-214 -215 -216 -217 218 0
220 -225 0
214 -219 0
221 -225 0
215 -219 0
222 -225 0
216 -219 0
-224 225 0
-218 219 0
223 -225 0
217 -219 0
-226 -227 -228 -229 231 0
-212 213 0
229 -231 0
228 -231 0
227 -231 0
226 -231 0
